(set-logic QF_BV)

(declare-const __ESBMC_ptr_obj_start_0 (_ BitVec 64))

(declare-const __ESBMC_ptr_obj_end_0 (_ BitVec 64))

(declare-const __ESBMC_ptr_obj_start_1 (_ BitVec 64))

(declare-const __ESBMC_ptr_obj_end_1 (_ BitVec 64))

(declare-const |smt_conv::__ESBMC_ptr_addr_range_0..start0| (_ BitVec 64))

(declare-const |smt_conv::__ESBMC_ptr_addr_range_0..end0| (_ BitVec 64))

(declare-const |smt_conv::__ESBMC_ptr_addr_range_1..start0| (_ BitVec 64))

(declare-const |smt_conv::__ESBMC_ptr_addr_range_1..end0| (_ BitVec 64))

(declare-const |smt_conv::smt_conv::collate_array_vals::3..start0| (_ BitVec 64))

(declare-const |smt_conv::smt_conv::collate_array_vals::3..end0| (_ BitVec 64))

(declare-const |smt_conv::smt_conv::collate_array_vals::4..start0| (_ BitVec 64))

(declare-const |smt_conv::smt_conv::collate_array_vals::4..end0| (_ BitVec 64))

(declare-const |smt_conv::smt_conv::collate_array_vals::7..start0| (_ BitVec 64))

(declare-const |smt_conv::smt_conv::collate_array_vals::7..end0| (_ BitVec 64))

(declare-const |c:WhileSingle.c@91@F@main@i?1!0&0#1| (_ BitVec 32))

(declare-const |nondet$symex::nondet13| (_ BitVec 32))

(declare-const |goto_symex::guard?0!0&0#1| (_ BitVec 1))

(declare-const |goto_symex::guard?0!0&0#2| (_ BitVec 1))

(declare-const |c:WhileSingle.c@91@F@main@i?1!0&0#2| (_ BitVec 32))

(declare-const |c:WhileSingle.c@91@F@main@i?1!0&0#3| (_ BitVec 32))

(declare-const |goto_symex::guard?0!0&0#3| (_ BitVec 1))

(declare-const |goto_symex::guard?0!0&0#4| (_ BitVec 1))

(declare-const |c:WhileSingle.c@91@F@main@i?1!0&0#4| (_ BitVec 32))

(declare-const |c:WhileSingle.c@91@F@main@i?1!0&0#5| (_ BitVec 32))

(declare-const |goto_symex::guard?0!0&0#5| (_ BitVec 1))

(declare-const |goto_symex::guard?0!0&0#6| (_ BitVec 1))

(declare-const |c:WhileSingle.c@91@F@main@i?1!0&0#6| (_ BitVec 32))

(declare-const |c:WhileSingle.c@91@F@main@i?1!0&0#7| (_ BitVec 32))

(declare-const |goto_symex::guard?0!0&0#7| (_ BitVec 1))

(declare-const |goto_symex::guard?0!0&0#8| (_ BitVec 1))

(declare-const |c:WhileSingle.c@91@F@main@i?1!0&0#8| (_ BitVec 32))

(declare-const |c:WhileSingle.c@91@F@main@i?1!0&0#9| (_ BitVec 32))

(declare-const |goto_symex::guard?0!0&0#9| (_ BitVec 1))

(declare-const |goto_symex::guard?0!0&0#10| (_ BitVec 1))

(declare-const |c:WhileSingle.c@91@F@main@i?1!0&0#10| (_ BitVec 32))

(declare-const |c:WhileSingle.c@91@F@main@i?1!0&0#11| (_ BitVec 32))

(declare-const |goto_symex::guard?0!0&0#11| (_ BitVec 1))

(declare-const |goto_symex::guard?0!0&0#12| (_ BitVec 1))

(declare-const |c:WhileSingle.c@91@F@main@i?1!0&0#12| (_ BitVec 32))

(declare-const |c:WhileSingle.c@91@F@main@i?1!0&0#13| (_ BitVec 32))

(declare-const |goto_symex::guard?0!0&0#13| (_ BitVec 1))

(declare-const |goto_symex::guard?0!0&0#14| (_ BitVec 1))

(declare-const |c:WhileSingle.c@91@F@main@i?1!0&0#14| (_ BitVec 32))

(declare-const |c:WhileSingle.c@91@F@main@i?1!0&0#15| (_ BitVec 32))

(declare-const |goto_symex::guard?0!0&0#15| (_ BitVec 1))

(declare-const |goto_symex::guard?0!0&0#16| (_ BitVec 1))

(declare-const |c:WhileSingle.c@91@F@main@i?1!0&0#16| (_ BitVec 32))

(declare-const |c:WhileSingle.c@91@F@main@i?1!0&0#17| (_ BitVec 32))

(declare-const |goto_symex::guard?0!0&0#17| (_ BitVec 1))

(declare-const |goto_symex::guard?0!0&0#18| (_ BitVec 1))

(declare-const |c:WhileSingle.c@91@F@main@i?1!0&0#18| (_ BitVec 32))

(declare-const |c:WhileSingle.c@91@F@main@i?1!0&0#19| (_ BitVec 32))

(declare-const |goto_symex::guard?0!0&0#19| (_ BitVec 1))

(declare-const |goto_symex::guard?0!0&0#20| (_ BitVec 1))

(declare-const |c:WhileSingle.c@91@F@main@i?1!0&0#20| (_ BitVec 32))

(declare-const |c:WhileSingle.c@91@F@main@i?1!0&0#21| (_ BitVec 32))

(declare-const |goto_symex::guard?0!0&0#21| (_ BitVec 1))

(declare-const |goto_symex::guard?0!0&0#22| (_ BitVec 1))

(declare-const |c:WhileSingle.c@91@F@main@i?1!0&0#22| (_ BitVec 32))

(declare-const |c:WhileSingle.c@91@F@main@i?1!0&0#23| (_ BitVec 32))

(declare-const |goto_symex::guard?0!0&0#23| (_ BitVec 1))

(declare-const |goto_symex::guard?0!0&0#24| (_ BitVec 1))

(declare-const |c:WhileSingle.c@91@F@main@i?1!0&0#24| (_ BitVec 32))

(declare-const |c:WhileSingle.c@91@F@main@i?1!0&0#25| (_ BitVec 32))

(declare-const |goto_symex::guard?0!0&0#25| (_ BitVec 1))

(declare-const |goto_symex::guard?0!0&0#26| (_ BitVec 1))

(declare-const |c:WhileSingle.c@91@F@main@i?1!0&0#26| (_ BitVec 32))

(declare-const |c:WhileSingle.c@91@F@main@i?1!0&0#27| (_ BitVec 32))

(declare-const |goto_symex::guard?0!0&0#27| (_ BitVec 1))

(declare-const |execution_statet::guard_exec?0!0| (_ BitVec 1))

(assert 

 (= __ESBMC_ptr_obj_start_0 #b0000000000000000000000000000000000000000000000000000000000000000))

(assert 

 (= #b0000000000000000000000000000000000000000000000000000000000000000 __ESBMC_ptr_obj_end_0))

(assert 

 (= __ESBMC_ptr_obj_start_1 #b0000000000000000000000000000000000000000000000000000000000000001))

(assert 

 (= #b1111111111111111111111111111111111111111111111111111111111111111 __ESBMC_ptr_obj_end_1))

(assert 

 (= __ESBMC_ptr_obj_end_0 |smt_conv::__ESBMC_ptr_addr_range_0..end0|))

(assert 

 (= __ESBMC_ptr_obj_start_0 |smt_conv::__ESBMC_ptr_addr_range_0..start0|))

(assert 

 (= __ESBMC_ptr_obj_end_1 |smt_conv::__ESBMC_ptr_addr_range_1..end0|))

(assert 

 (= __ESBMC_ptr_obj_start_1 |smt_conv::__ESBMC_ptr_addr_range_1..start0|))

(assert 

 (= |smt_conv::smt_conv::collate_array_vals::3..end0| |smt_conv::smt_conv::collate_array_vals::4..end0|))

(assert 

 (= |smt_conv::smt_conv::collate_array_vals::3..start0| |smt_conv::smt_conv::collate_array_vals::4..start0|))

(assert 

 (= __ESBMC_ptr_obj_end_0 |smt_conv::smt_conv::collate_array_vals::7..end0|))

(assert 

 (= __ESBMC_ptr_obj_start_0 |smt_conv::smt_conv::collate_array_vals::7..start0|))

(assert 

 (= |c:WhileSingle.c@91@F@main@i?1!0&0#1| |nondet$symex::nondet13|))

(assert 

 (= |goto_symex::guard?0!0&0#1| 

  (ite 

   (bvslt |c:WhileSingle.c@91@F@main@i?1!0&0#1| #b00000000000000000000000000001010) #b1 #b0)))

(assert 

 (= |goto_symex::guard?0!0&0#2| 

  (bvnot 

   (ite 

    (= |c:WhileSingle.c@91@F@main@i?1!0&0#1| #b00000000000000000000000000000011) #b1 #b0))))

(assert 

 (= |c:WhileSingle.c@91@F@main@i?1!0&0#2| 

  (bvadd |c:WhileSingle.c@91@F@main@i?1!0&0#1| #b00000000000000000000000000000001)))

(assert 

 (= |c:WhileSingle.c@91@F@main@i?1!0&0#3| 

  (ite 

   (= #b1 |goto_symex::guard?0!0&0#2|) |c:WhileSingle.c@91@F@main@i?1!0&0#2| |c:WhileSingle.c@91@F@main@i?1!0&0#1|)))

(assert 

 (= |goto_symex::guard?0!0&0#3| 

  (ite 

   (bvslt |c:WhileSingle.c@91@F@main@i?1!0&0#3| #b00000000000000000000000000001010) #b1 #b0)))

(assert 

 (= |goto_symex::guard?0!0&0#4| 

  (bvnot 

   (ite 

    (= #b00000000000000000000000000000011 |c:WhileSingle.c@91@F@main@i?1!0&0#3|) #b1 #b0))))

(assert 

 (= |c:WhileSingle.c@91@F@main@i?1!0&0#4| 

  (bvadd #b00000000000000000000000000000001 |c:WhileSingle.c@91@F@main@i?1!0&0#3|)))

(assert 

 (= |c:WhileSingle.c@91@F@main@i?1!0&0#5| 

  (ite 

   (= #b1 |goto_symex::guard?0!0&0#4|) |c:WhileSingle.c@91@F@main@i?1!0&0#4| |c:WhileSingle.c@91@F@main@i?1!0&0#3|)))

(assert 

 (= |goto_symex::guard?0!0&0#5| 

  (ite 

   (bvslt |c:WhileSingle.c@91@F@main@i?1!0&0#5| #b00000000000000000000000000001010) #b1 #b0)))

(assert 

 (= |goto_symex::guard?0!0&0#6| 

  (bvnot 

   (ite 

    (= #b00000000000000000000000000000011 |c:WhileSingle.c@91@F@main@i?1!0&0#5|) #b1 #b0))))

(assert 

 (= |c:WhileSingle.c@91@F@main@i?1!0&0#6| 

  (bvadd #b00000000000000000000000000000001 |c:WhileSingle.c@91@F@main@i?1!0&0#5|)))

(assert 

 (= |c:WhileSingle.c@91@F@main@i?1!0&0#7| 

  (ite 

   (= #b1 |goto_symex::guard?0!0&0#6|) |c:WhileSingle.c@91@F@main@i?1!0&0#6| |c:WhileSingle.c@91@F@main@i?1!0&0#5|)))

(assert 

 (= |goto_symex::guard?0!0&0#7| 

  (ite 

   (bvslt |c:WhileSingle.c@91@F@main@i?1!0&0#7| #b00000000000000000000000000001010) #b1 #b0)))

(assert 

 (= |goto_symex::guard?0!0&0#8| 

  (bvnot 

   (ite 

    (= #b00000000000000000000000000000011 |c:WhileSingle.c@91@F@main@i?1!0&0#7|) #b1 #b0))))

(assert 

 (= |c:WhileSingle.c@91@F@main@i?1!0&0#8| 

  (bvadd #b00000000000000000000000000000001 |c:WhileSingle.c@91@F@main@i?1!0&0#7|)))

(assert 

 (= |c:WhileSingle.c@91@F@main@i?1!0&0#9| 

  (ite 

   (= #b1 |goto_symex::guard?0!0&0#8|) |c:WhileSingle.c@91@F@main@i?1!0&0#8| |c:WhileSingle.c@91@F@main@i?1!0&0#7|)))

(assert 

 (= |goto_symex::guard?0!0&0#9| 

  (ite 

   (bvslt |c:WhileSingle.c@91@F@main@i?1!0&0#9| #b00000000000000000000000000001010) #b1 #b0)))

(assert 

 (= |goto_symex::guard?0!0&0#10| 

  (bvnot 

   (ite 

    (= #b00000000000000000000000000000011 |c:WhileSingle.c@91@F@main@i?1!0&0#9|) #b1 #b0))))

(assert 

 (= |c:WhileSingle.c@91@F@main@i?1!0&0#10| 

  (bvadd #b00000000000000000000000000000001 |c:WhileSingle.c@91@F@main@i?1!0&0#9|)))

(assert 

 (= |c:WhileSingle.c@91@F@main@i?1!0&0#11| 

  (ite 

   (= #b1 |goto_symex::guard?0!0&0#10|) |c:WhileSingle.c@91@F@main@i?1!0&0#10| |c:WhileSingle.c@91@F@main@i?1!0&0#9|)))

(assert 

 (= |goto_symex::guard?0!0&0#11| 

  (ite 

   (bvslt |c:WhileSingle.c@91@F@main@i?1!0&0#11| #b00000000000000000000000000001010) #b1 #b0)))

(assert 

 (= |goto_symex::guard?0!0&0#12| 

  (bvnot 

   (ite 

    (= #b00000000000000000000000000000011 |c:WhileSingle.c@91@F@main@i?1!0&0#11|) #b1 #b0))))

(assert 

 (= |c:WhileSingle.c@91@F@main@i?1!0&0#12| 

  (bvadd #b00000000000000000000000000000001 |c:WhileSingle.c@91@F@main@i?1!0&0#11|)))

(assert 

 (= |c:WhileSingle.c@91@F@main@i?1!0&0#13| 

  (ite 

   (= #b1 |goto_symex::guard?0!0&0#12|) |c:WhileSingle.c@91@F@main@i?1!0&0#12| |c:WhileSingle.c@91@F@main@i?1!0&0#11|)))

(assert 

 (= |goto_symex::guard?0!0&0#13| 

  (ite 

   (bvslt |c:WhileSingle.c@91@F@main@i?1!0&0#13| #b00000000000000000000000000001010) #b1 #b0)))

(assert 

 (= |goto_symex::guard?0!0&0#14| 

  (bvnot 

   (ite 

    (= #b00000000000000000000000000000011 |c:WhileSingle.c@91@F@main@i?1!0&0#13|) #b1 #b0))))

(assert 

 (= |c:WhileSingle.c@91@F@main@i?1!0&0#14| 

  (bvadd #b00000000000000000000000000000001 |c:WhileSingle.c@91@F@main@i?1!0&0#13|)))

(assert 

 (= |c:WhileSingle.c@91@F@main@i?1!0&0#15| 

  (ite 

   (= #b1 |goto_symex::guard?0!0&0#14|) |c:WhileSingle.c@91@F@main@i?1!0&0#14| |c:WhileSingle.c@91@F@main@i?1!0&0#13|)))

(assert 

 (= |goto_symex::guard?0!0&0#15| 

  (ite 

   (bvslt |c:WhileSingle.c@91@F@main@i?1!0&0#15| #b00000000000000000000000000001010) #b1 #b0)))

(assert 

 (= |goto_symex::guard?0!0&0#16| 

  (bvnot 

   (ite 

    (= #b00000000000000000000000000000011 |c:WhileSingle.c@91@F@main@i?1!0&0#15|) #b1 #b0))))

(assert 

 (= |c:WhileSingle.c@91@F@main@i?1!0&0#16| 

  (bvadd #b00000000000000000000000000000001 |c:WhileSingle.c@91@F@main@i?1!0&0#15|)))

(assert 

 (= |c:WhileSingle.c@91@F@main@i?1!0&0#17| 

  (ite 

   (= #b1 |goto_symex::guard?0!0&0#16|) |c:WhileSingle.c@91@F@main@i?1!0&0#16| |c:WhileSingle.c@91@F@main@i?1!0&0#15|)))

(assert 

 (= |goto_symex::guard?0!0&0#17| 

  (ite 

   (bvslt |c:WhileSingle.c@91@F@main@i?1!0&0#17| #b00000000000000000000000000001010) #b1 #b0)))

(assert 

 (= |goto_symex::guard?0!0&0#18| 

  (bvnot 

   (ite 

    (= #b00000000000000000000000000000011 |c:WhileSingle.c@91@F@main@i?1!0&0#17|) #b1 #b0))))

(assert 

 (= |c:WhileSingle.c@91@F@main@i?1!0&0#18| 

  (bvadd #b00000000000000000000000000000001 |c:WhileSingle.c@91@F@main@i?1!0&0#17|)))

(assert 

 (= |c:WhileSingle.c@91@F@main@i?1!0&0#19| 

  (ite 

   (= #b1 |goto_symex::guard?0!0&0#18|) |c:WhileSingle.c@91@F@main@i?1!0&0#18| |c:WhileSingle.c@91@F@main@i?1!0&0#17|)))

(assert 

 (= |goto_symex::guard?0!0&0#19| 

  (ite 

   (bvslt |c:WhileSingle.c@91@F@main@i?1!0&0#19| #b00000000000000000000000000001010) #b1 #b0)))

(assert 

 (= |goto_symex::guard?0!0&0#20| 

  (bvnot 

   (ite 

    (= #b00000000000000000000000000000011 |c:WhileSingle.c@91@F@main@i?1!0&0#19|) #b1 #b0))))

(assert 

 (= |c:WhileSingle.c@91@F@main@i?1!0&0#20| 

  (bvadd #b00000000000000000000000000000001 |c:WhileSingle.c@91@F@main@i?1!0&0#19|)))

(assert 

 (= |c:WhileSingle.c@91@F@main@i?1!0&0#21| 

  (ite 

   (= #b1 |goto_symex::guard?0!0&0#20|) |c:WhileSingle.c@91@F@main@i?1!0&0#20| |c:WhileSingle.c@91@F@main@i?1!0&0#19|)))

(assert 

 (= |goto_symex::guard?0!0&0#21| 

  (ite 

   (bvslt |c:WhileSingle.c@91@F@main@i?1!0&0#21| #b00000000000000000000000000001010) #b1 #b0)))

(assert 

 (= |goto_symex::guard?0!0&0#22| 

  (bvnot 

   (ite 

    (= #b00000000000000000000000000000011 |c:WhileSingle.c@91@F@main@i?1!0&0#21|) #b1 #b0))))

(assert 

 (= |c:WhileSingle.c@91@F@main@i?1!0&0#22| 

  (bvadd #b00000000000000000000000000000001 |c:WhileSingle.c@91@F@main@i?1!0&0#21|)))

(assert 

 (= |c:WhileSingle.c@91@F@main@i?1!0&0#23| 

  (ite 

   (= #b1 |goto_symex::guard?0!0&0#22|) |c:WhileSingle.c@91@F@main@i?1!0&0#22| |c:WhileSingle.c@91@F@main@i?1!0&0#21|)))

(assert 

 (= |goto_symex::guard?0!0&0#23| 

  (ite 

   (bvslt |c:WhileSingle.c@91@F@main@i?1!0&0#23| #b00000000000000000000000000001010) #b1 #b0)))

(assert 

 (= |goto_symex::guard?0!0&0#24| 

  (bvnot 

   (ite 

    (= #b00000000000000000000000000000011 |c:WhileSingle.c@91@F@main@i?1!0&0#23|) #b1 #b0))))

(assert 

 (= |c:WhileSingle.c@91@F@main@i?1!0&0#24| 

  (bvadd #b00000000000000000000000000000001 |c:WhileSingle.c@91@F@main@i?1!0&0#23|)))

(assert 

 (= |c:WhileSingle.c@91@F@main@i?1!0&0#25| 

  (ite 

   (= #b1 |goto_symex::guard?0!0&0#24|) |c:WhileSingle.c@91@F@main@i?1!0&0#24| |c:WhileSingle.c@91@F@main@i?1!0&0#23|)))

(assert 

 (= |goto_symex::guard?0!0&0#25| 

  (ite 

   (bvslt |c:WhileSingle.c@91@F@main@i?1!0&0#25| #b00000000000000000000000000001010) #b1 #b0)))

(assert 

 (= |goto_symex::guard?0!0&0#26| 

  (bvnot 

   (ite 

    (= #b00000000000000000000000000000011 |c:WhileSingle.c@91@F@main@i?1!0&0#25|) #b1 #b0))))

(assert 

 (= |c:WhileSingle.c@91@F@main@i?1!0&0#26| 

  (bvadd #b00000000000000000000000000000001 |c:WhileSingle.c@91@F@main@i?1!0&0#25|)))

(assert 

 (= |c:WhileSingle.c@91@F@main@i?1!0&0#27| 

  (ite 

   (= #b1 |goto_symex::guard?0!0&0#26|) |c:WhileSingle.c@91@F@main@i?1!0&0#26| |c:WhileSingle.c@91@F@main@i?1!0&0#25|)))

(assert 

 (= |goto_symex::guard?0!0&0#27| 

  (ite 

   (bvslt |c:WhileSingle.c@91@F@main@i?1!0&0#27| #b00000000000000000000000000001010) #b1 #b0)))

(assert (= |execution_statet::guard_exec?0!0| #b1))

(assert (= |goto_symex::guard?0!0&0#27| #b1))

(assert (= |goto_symex::guard?0!0&0#25| #b1))

(assert (= |goto_symex::guard?0!0&0#23| #b1))

(assert (= |goto_symex::guard?0!0&0#21| #b1))

(assert (= |goto_symex::guard?0!0&0#19| #b1))

(assert (= |goto_symex::guard?0!0&0#17| #b1))

(assert (= |goto_symex::guard?0!0&0#15| #b1))

(assert (= |goto_symex::guard?0!0&0#13| #b1))

(assert (= |goto_symex::guard?0!0&0#11| #b1))

(assert (= |goto_symex::guard?0!0&0#9| #b1))

(assert (= |goto_symex::guard?0!0&0#7| #b1))

(assert (= |goto_symex::guard?0!0&0#5| #b1))

(assert (= |goto_symex::guard?0!0&0#3| #b1))

(assert (= |goto_symex::guard?0!0&0#1| #b1))

(check-sat)

(exit)
